100 8
393 375
420 235
614 547
338 597
411 85
201 693
154 162
825 119
227 725
795 160
176 373
262 290
975 108
434 862
300 393
638 298
980 124
792 97
358 588
221 788
537 294
556 722
239 451
283 381
113 170
512 864
374 431
173 624
704 596
553 476
636 326
204 222
631 410
630 566
743 651
225 345
398 123
246 564
690 776
601 492
484 528
639 132
223 176
552 445
180 732
193 665
501 211
229 506
329 519
536 584
240 678
734 456
768 524
387 533
170 168
624 893
166 63
516 866
344 763
438 285
671 324
272 407
341 364
620 558
692 179
349 216
702 447
711 608
549 788
107 221
767 63
738 351
184 625
562 365
740 196
119 426
691 774
935 172
481 553
633 391
567 605
267 360
779 29
194 516
645 646
565 482
609 931
602 762
492 390
303 400
595 563
190 526
647 604
553 819
689 177
327 475
582 527
581 233
591 778
647 521
